pair_coeff      1      1          0          0          0          0  # HT
pair_coeff      2      2  0.1554253   3.165492  0.1554253   3.165492  # OT
pair_coeff      3      3     0.0469   2.513671     0.0469   2.513671  # SOD
pair_coeff      4      4       0.15    4.04468       0.15    4.04468  # CLA
pair_coeff      5      5  0.0986097   3.118507  0.0986097   3.118507  # OTH
pair_coeff      6      6 4.0583e-05          0 4.0583e-05          0  # HTH
pair_coeff      7      7      0.046  0.4000135      0.046  0.4000135  # H
pair_coeff      8      8      0.046  0.4000135      0.046  0.4000135  # HC
pair_coeff      9      9       0.03   2.420037       0.03   2.420037  # HP
pair_coeff     10     10      0.022   2.351973      0.022   2.351973  # HB1
pair_coeff     11     11      0.028   2.387609      0.028   2.387609  # HB2
pair_coeff     12     12      0.045   2.387609      0.045   2.387609  # HA1
pair_coeff     13     13      0.034   2.387609      0.034   2.387609  # HA2
pair_coeff     14     14      0.024   2.387609      0.024   2.387609  # HA3
pair_coeff     15     15       0.11   3.563595       0.11   3.563595  # C
pair_coeff     16     16       0.07   3.550053       0.07   3.550053  # CA
pair_coeff     17     17      0.032   3.563595       0.01   3.385415  # CT1
pair_coeff     18     18      0.056   3.581413       0.01   3.385415  # CT2
pair_coeff     19     19      0.056   3.581413       0.01   3.385415  # CT2A
pair_coeff     20     20      0.078   3.634867       0.01   3.385415  # CT3
pair_coeff     21     21      0.099   3.314143      0.099   3.314143  # CPT
pair_coeff     22     22      0.073   3.545777      0.073   3.545777  # CY
pair_coeff     23     23       0.07   3.563595       0.07   3.563595  # CC
pair_coeff     24     24      0.073   3.545777      0.073   3.545777  # CAI
pair_coeff     25     25        0.2   3.296325        0.2   2.761786  # NH1
pair_coeff     26     26        0.2   3.296325        0.2   3.296325  # NH2
pair_coeff     27     27        0.2   3.296325        0.2   3.296325  # NH3
pair_coeff     28     28        0.2   3.296325        0.2   3.296325  # NC2
pair_coeff     29     29        0.2   3.296325        0.2   3.296325  # NY
pair_coeff     30     30       0.12   3.029056       0.12   2.494516  # O
pair_coeff     31     31       0.12   3.029056       0.12   3.029056  # OC
pair_coeff     32     32     0.1521   3.153781     0.1521   3.153781  # OH1
pair_coeff     33     33      0.046   1.247258      0.046   1.247258  # HL
pair_coeff     34     34      0.022   2.351973      0.022   2.351973  # HAL1
pair_coeff     35     35      0.028   2.387609      0.028   2.387609  # HAL2
pair_coeff     36     36      0.024   2.387609      0.024   2.387609  # HAL3
pair_coeff     37     37      0.031   2.227247      0.031   2.227247  # HEL1
pair_coeff     38     38       0.07   3.563595       0.07   3.563595  # CL
pair_coeff     39     39       0.02   4.053589       0.01   3.385415  # CTL1
pair_coeff     40     40      0.056   3.581413       0.01   3.385415  # CTL2
pair_coeff     41     41      0.078   3.634867       0.01   3.385415  # CTL3
pair_coeff     42     42       0.08   3.670503       0.01   3.385415  # CTL5
pair_coeff     43     43      0.068   3.723957      0.068   3.723957  # CEL1
pair_coeff     44     44        0.2   3.296325        0.2   3.296325  # NTL
pair_coeff     45     45       0.12   3.029056       0.12   2.494516  # OBL
pair_coeff     46     46        0.1   2.939966        0.1   2.939966  # OSL
pair_coeff     47     47       0.12   3.029056       0.12   3.029056  # O2L
pair_coeff     48     48        0.1   2.939966        0.1   2.939966  # OSLP
pair_coeff     49     49      0.585   3.830864      0.585   3.830864  # PL
pair_coeff     1       5        3.0   1.6             3.0   1.6       # HW - OH

bond_coeff      1    harmonic        250       1.49  # C    CT1 
bond_coeff      2    harmonic        450      1.365  # C    NC2 
bond_coeff      3    harmonic        370      1.345  # C    NH1 
bond_coeff      4    harmonic        620       1.23  # C    O   
bond_coeff      5    harmonic        305      1.375  # CA   CA  
bond_coeff      6    harmonic        305      1.375  # CA   CAI 
bond_coeff      7    harmonic        230       1.49  # CA   CT2 
bond_coeff      8    harmonic        350      1.365  # CA   CY  
bond_coeff      9    harmonic        340       1.08  # CA   HP  
bond_coeff     10    harmonic        270       1.37  # CA   NY  
bond_coeff     11    harmonic        300       1.36  # CAI  CPT 
bond_coeff     12    harmonic        340       1.08  # CAI  HP  
bond_coeff     13    harmonic        200      1.522  # CC   CT2 
bond_coeff     14    harmonic        200      1.522  # CC   CT2A
bond_coeff     15    harmonic        430       1.36  # CC   NH2 
bond_coeff     16    harmonic        650       1.23  # CC   O   
bond_coeff     17    harmonic        525       1.26  # CC   OC  
bond_coeff     18    harmonic        440       1.34  # CEL1 CEL1
bond_coeff     19    harmonic        365      1.502  # CEL1 CTL2
bond_coeff     20    harmonic      360.5        1.1  # CEL1 HEL1
bond_coeff     21    harmonic        200      1.522  # CL   CTL2
bond_coeff     22    harmonic        750       1.22  # CL   OBL 
bond_coeff     23    harmonic        150      1.334  # CL   OSL 
bond_coeff     24    harmonic        360      1.385  # CPT  CPT 
bond_coeff     25    harmonic        350       1.43  # CPT  CY  
bond_coeff     26    harmonic        270       1.37  # CPT  NY  
bond_coeff     27    harmonic      222.5        1.5  # CT1  CT1 
bond_coeff     28    harmonic      222.5      1.538  # CT1  CT2 
bond_coeff     29    harmonic      222.5      1.538  # CT1  CT2A
bond_coeff     30    harmonic      222.5      1.538  # CT1  CT3 
bond_coeff     31    harmonic        309      1.111  # CT1  HA1 
bond_coeff     32    harmonic        330       1.08  # CT1  HB1 
bond_coeff     33    harmonic        320       1.43  # CT1  NH1 
bond_coeff     34    harmonic        200       1.48  # CT1  NH3 
bond_coeff     35    harmonic      222.5       1.53  # CT2  CT2 
bond_coeff     36    harmonic      222.5      1.528  # CT2  CT3 
bond_coeff     37    harmonic        375      1.492  # CT2  CY  
bond_coeff     38    harmonic        309      1.111  # CT2  HA2 
bond_coeff     39    harmonic        330       1.08  # CT2  HB2 
bond_coeff     40    harmonic        390       1.49  # CT2  NC2 
bond_coeff     41    harmonic        320       1.43  # CT2  NH1 
bond_coeff     42    harmonic        200       1.48  # CT2  NH3 
bond_coeff     43    harmonic        428       1.42  # CT2  OH1 
bond_coeff     44    harmonic        309      1.111  # CT2A HA2 
bond_coeff     45    harmonic        322      1.111  # CT3  HA3 
bond_coeff     46    harmonic      222.5      1.538  # CTL1 CTL2
bond_coeff     47    harmonic        309      1.111  # CTL1 HAL1
bond_coeff     48    harmonic        340       1.43  # CTL1 OSL 
bond_coeff     49    harmonic      222.5       1.53  # CTL2 CTL2
bond_coeff     50    harmonic      222.5      1.528  # CTL2 CTL3
bond_coeff     51    harmonic        309      1.111  # CTL2 HAL2
bond_coeff     52    harmonic        300       1.08  # CTL2 HL  
bond_coeff     53    harmonic        215       1.51  # CTL2 NTL 
bond_coeff     54    harmonic        340       1.43  # CTL2 OSL 
bond_coeff     55    harmonic        340       1.43  # CTL2 OSLP
bond_coeff     56    harmonic        322      1.111  # CTL3 HAL3
bond_coeff     57    harmonic        300       1.08  # CTL5 HL  
bond_coeff     58    harmonic        215       1.51  # CTL5 NTL 
bond_coeff     59    harmonic        440      0.997  # H    NH1 
bond_coeff     60    harmonic        480          1  # H    NH2 
bond_coeff     61    harmonic      537.5      0.976  # H    NY  
bond_coeff     62    harmonic        545       0.96  # H    OH1 
bond_coeff     63    harmonic        455          1  # HC   NC2 
bond_coeff     64    harmonic        403       1.04  # HC   NH3 
bond_coeff     65    harmonic    529.581      1.012  # HT   OT  
bond_coeff     66     morse    79.086356   2.083387  0.98  # prev:  harmonic        450     0.9572  # HTH  OTH 
bond_coeff     67    harmonic        580       1.48  # O2L  PL  
bond_coeff     68    harmonic        270        1.6  # OSLP PL  
