
units           real
neigh_modify    delay 2 every 1

atom_style      full
bond_style      hybrid harmonic morse
angle_style     charmm
dihedral_style  charmm
improper_style  harmonic
special_bonds   charmm

pair_style      lj/charmm/coul/long 10 12
pair_modify     mix arithmetic
kspace_style    pppm 1e-4

